p cnf 172 588
1 2 3 0
-1 -2 -3 0
1 5 9 0
-1 -5 -9 0
2 3 4 0
-2 -3 -4 0
5 9 13 0
-5 -9 -13 0
5 6 7 0
-5 -6 -7 0
2 6 10 0
-2 -6 -10 0
6 7 8 0
-6 -7 -8 0
6 10 14 0
-6 -10 -14 0
9 10 11 0
-9 -10 -11 0
3 7 11 0
-3 -7 -11 0
10 11 12 0
-10 -11 -12 0
7 11 15 0
-7 -11 -15 0
13 14 15 0
-13 -14 -15 0
4 8 12 0
-4 -8 -12 0
14 15 16 0
-14 -15 -16 0
8 12 16 0
-8 -12 -16 0
1 2 3 0
-1 -2 -3 0
1 5 9 0
-1 -5 -9 0
1 2 4 0
-1 -2 -4 0
1 5 13 0
-1 -5 -13 0
1 3 4 0
-1 -3 -4 0
1 9 13 0
-1 -9 -13 0
2 3 4 0
-2 -3 -4 0
5 9 13 0
-5 -9 -13 0
5 6 7 0
-5 -6 -7 0
2 6 10 0
-2 -6 -10 0
5 6 8 0
-5 -6 -8 0
2 6 14 0
-2 -6 -14 0
5 7 8 0
-5 -7 -8 0
2 10 14 0
-2 -10 -14 0
6 7 8 0
-6 -7 -8 0
6 10 14 0
-6 -10 -14 0
9 10 11 0
-9 -10 -11 0
3 7 11 0
-3 -7 -11 0
9 10 12 0
-9 -10 -12 0
3 7 15 0
-3 -7 -15 0
9 11 12 0
-9 -11 -12 0
3 11 15 0
-3 -11 -15 0
10 11 12 0
-10 -11 -12 0
7 11 15 0
-7 -11 -15 0
13 14 15 0
-13 -14 -15 0
4 8 12 0
-4 -8 -12 0
13 14 16 0
-13 -14 -16 0
4 8 16 0
-4 -8 -16 0
13 15 16 0
-13 -15 -16 0
4 12 16 0
-4 -12 -16 0
14 15 16 0
-14 -15 -16 0
8 12 16 0
-8 -12 -16 0
1 -17 0
5 -17 0
-1 -5 17 0
-1 -18 0
-5 -18 0
1 5 18 0
-17 113 0
-18 113 0
17 18 -113 0
113 161 0
2 -19 0
6 -19 0
-2 -6 19 0
-2 -20 0
-6 -20 0
2 6 20 0
-19 114 0
-20 114 0
19 20 -114 0
114 161 0
3 -21 0
7 -21 0
-3 -7 21 0
-3 -22 0
-7 -22 0
3 7 22 0
-21 115 0
-22 115 0
21 22 -115 0
115 161 0
4 -23 0
8 -23 0
-4 -8 23 0
-4 -24 0
-8 -24 0
4 8 24 0
-23 116 0
-24 116 0
23 24 -116 0
116 161 0
-113 -114 -115 -116 -161 0
1 -25 0
9 -25 0
-1 -9 25 0
-1 -26 0
-9 -26 0
1 9 26 0
-25 117 0
-26 117 0
25 26 -117 0
117 162 0
2 -27 0
10 -27 0
-2 -10 27 0
-2 -28 0
-10 -28 0
2 10 28 0
-27 118 0
-28 118 0
27 28 -118 0
118 162 0
3 -29 0
11 -29 0
-3 -11 29 0
-3 -30 0
-11 -30 0
3 11 30 0
-29 119 0
-30 119 0
29 30 -119 0
119 162 0
4 -31 0
12 -31 0
-4 -12 31 0
-4 -32 0
-12 -32 0
4 12 32 0
-31 120 0
-32 120 0
31 32 -120 0
120 162 0
-117 -118 -119 -120 -162 0
1 -33 0
13 -33 0
-1 -13 33 0
-1 -34 0
-13 -34 0
1 13 34 0
-33 121 0
-34 121 0
33 34 -121 0
121 163 0
2 -35 0
14 -35 0
-2 -14 35 0
-2 -36 0
-14 -36 0
2 14 36 0
-35 122 0
-36 122 0
35 36 -122 0
122 163 0
3 -37 0
15 -37 0
-3 -15 37 0
-3 -38 0
-15 -38 0
3 15 38 0
-37 123 0
-38 123 0
37 38 -123 0
123 163 0
4 -39 0
16 -39 0
-4 -16 39 0
-4 -40 0
-16 -40 0
4 16 40 0
-39 124 0
-40 124 0
39 40 -124 0
124 163 0
-121 -122 -123 -124 -163 0
5 -41 0
9 -41 0
-5 -9 41 0
-5 -42 0
-9 -42 0
5 9 42 0
-41 125 0
-42 125 0
41 42 -125 0
125 164 0
6 -43 0
10 -43 0
-6 -10 43 0
-6 -44 0
-10 -44 0
6 10 44 0
-43 126 0
-44 126 0
43 44 -126 0
126 164 0
7 -45 0
11 -45 0
-7 -11 45 0
-7 -46 0
-11 -46 0
7 11 46 0
-45 127 0
-46 127 0
45 46 -127 0
127 164 0
8 -47 0
12 -47 0
-8 -12 47 0
-8 -48 0
-12 -48 0
8 12 48 0
-47 128 0
-48 128 0
47 48 -128 0
128 164 0
-125 -126 -127 -128 -164 0
5 -49 0
13 -49 0
-5 -13 49 0
-5 -50 0
-13 -50 0
5 13 50 0
-49 129 0
-50 129 0
49 50 -129 0
129 165 0
6 -51 0
14 -51 0
-6 -14 51 0
-6 -52 0
-14 -52 0
6 14 52 0
-51 130 0
-52 130 0
51 52 -130 0
130 165 0
7 -53 0
15 -53 0
-7 -15 53 0
-7 -54 0
-15 -54 0
7 15 54 0
-53 131 0
-54 131 0
53 54 -131 0
131 165 0
8 -55 0
16 -55 0
-8 -16 55 0
-8 -56 0
-16 -56 0
8 16 56 0
-55 132 0
-56 132 0
55 56 -132 0
132 165 0
-129 -130 -131 -132 -165 0
9 -57 0
13 -57 0
-9 -13 57 0
-9 -58 0
-13 -58 0
9 13 58 0
-57 133 0
-58 133 0
57 58 -133 0
133 166 0
10 -59 0
14 -59 0
-10 -14 59 0
-10 -60 0
-14 -60 0
10 14 60 0
-59 134 0
-60 134 0
59 60 -134 0
134 166 0
11 -61 0
15 -61 0
-11 -15 61 0
-11 -62 0
-15 -62 0
11 15 62 0
-61 135 0
-62 135 0
61 62 -135 0
135 166 0
12 -63 0
16 -63 0
-12 -16 63 0
-12 -64 0
-16 -64 0
12 16 64 0
-63 136 0
-64 136 0
63 64 -136 0
136 166 0
-133 -134 -135 -136 -166 0
1 -65 0
2 -65 0
-1 -2 65 0
1 -66 0
2 -66 0
1 2 66 0
-65 137 0
-66 137 0
65 66 -137 0
137 167 0
5 -67 0
6 -67 0
-5 -6 67 0
5 -68 0
6 -68 0
5 6 68 0
-67 138 0
-68 138 0
67 68 -138 0
138 167 0
9 -69 0
10 -69 0
-9 -10 69 0
9 -70 0
10 -70 0
9 10 70 0
-69 139 0
-70 139 0
69 70 -139 0
139 167 0
13 -71 0
14 -71 0
-13 -14 71 0
13 -72 0
14 -72 0
13 14 72 0
-71 140 0
-72 140 0
71 72 -140 0
140 167 0
-137 -138 -139 -140 -167 0
1 -73 0
3 -73 0
-1 -3 73 0
1 -74 0
3 -74 0
1 3 74 0
-73 141 0
-74 141 0
73 74 -141 0
141 168 0
5 -75 0
7 -75 0
-5 -7 75 0
5 -76 0
7 -76 0
5 7 76 0
-75 142 0
-76 142 0
75 76 -142 0
142 168 0
9 -77 0
11 -77 0
-9 -11 77 0
9 -78 0
11 -78 0
9 11 78 0
-77 143 0
-78 143 0
77 78 -143 0
143 168 0
13 -79 0
15 -79 0
-13 -15 79 0
13 -80 0
15 -80 0
13 15 80 0
-79 144 0
-80 144 0
79 80 -144 0
144 168 0
-141 -142 -143 -144 -168 0
1 -81 0
4 -81 0
-1 -4 81 0
1 -82 0
4 -82 0
1 4 82 0
-81 145 0
-82 145 0
81 82 -145 0
145 169 0
5 -83 0
8 -83 0
-5 -8 83 0
5 -84 0
8 -84 0
5 8 84 0
-83 146 0
-84 146 0
83 84 -146 0
146 169 0
9 -85 0
12 -85 0
-9 -12 85 0
9 -86 0
12 -86 0
9 12 86 0
-85 147 0
-86 147 0
85 86 -147 0
147 169 0
13 -87 0
16 -87 0
-13 -16 87 0
13 -88 0
16 -88 0
13 16 88 0
-87 148 0
-88 148 0
87 88 -148 0
148 169 0
-145 -146 -147 -148 -169 0
2 -89 0
3 -89 0
-2 -3 89 0
2 -90 0
3 -90 0
2 3 90 0
-89 149 0
-90 149 0
89 90 -149 0
149 170 0
6 -91 0
7 -91 0
-6 -7 91 0
6 -92 0
7 -92 0
6 7 92 0
-91 150 0
-92 150 0
91 92 -150 0
150 170 0
10 -93 0
11 -93 0
-10 -11 93 0
10 -94 0
11 -94 0
10 11 94 0
-93 151 0
-94 151 0
93 94 -151 0
151 170 0
14 -95 0
15 -95 0
-14 -15 95 0
14 -96 0
15 -96 0
14 15 96 0
-95 152 0
-96 152 0
95 96 -152 0
152 170 0
-149 -150 -151 -152 -170 0
2 -97 0
4 -97 0
-2 -4 97 0
2 -98 0
4 -98 0
2 4 98 0
-97 153 0
-98 153 0
97 98 -153 0
153 171 0
6 -99 0
8 -99 0
-6 -8 99 0
6 -100 0
8 -100 0
6 8 100 0
-99 154 0
-100 154 0
99 100 -154 0
154 171 0
10 -101 0
12 -101 0
-10 -12 101 0
10 -102 0
12 -102 0
10 12 102 0
-101 155 0
-102 155 0
101 102 -155 0
155 171 0
14 -103 0
16 -103 0
-14 -16 103 0
14 -104 0
16 -104 0
14 16 104 0
-103 156 0
-104 156 0
103 104 -156 0
156 171 0
-153 -154 -155 -156 -171 0
3 -105 0
4 -105 0
-3 -4 105 0
3 -106 0
4 -106 0
3 4 106 0
-105 157 0
-106 157 0
105 106 -157 0
157 172 0
7 -107 0
8 -107 0
-7 -8 107 0
7 -108 0
8 -108 0
7 8 108 0
-107 158 0
-108 158 0
107 108 -158 0
158 172 0
11 -109 0
12 -109 0
-11 -12 109 0
11 -110 0
12 -110 0
11 12 110 0
-109 159 0
-110 159 0
109 110 -159 0
159 172 0
15 -111 0
16 -111 0
-15 -16 111 0
15 -112 0
16 -112 0
15 16 112 0
-111 160 0
-112 160 0
111 112 -160 0
160 172 0
-157 -158 -159 -160 -172 0
